4
15
37
40	32
1	4	5	12	7	7	15	3	11	3	
2	2	28	2	6	14	
3	1	8	9	
4	4	8	11	15	7	11	2	6	9	
5	1	13	2	
6	4	12	5	16	3	29	3	13	7	
7	3	8	4	6	6	6	5	
8	3	7	6	16	6	13	8	
9	2	21	2	5	12	
10	1	5	9	
11	1	11	3	
12	1	7	12	
13	3	7	13	7	13	8	7	
14	3	26	3	17	3	32	3	
15	4	24	3	9	5	5	6	5	10	
